regressions/smt2/6902.smt2
; SMT-LIBv2 description generated by Yosys 0.32 (git sha1 fbab08acf14, c++ 13.0.0 -O2 -fPIC -Os)
; yosys-smt2-stdt
; yosys-smt2-module top
(set-option :produce-models true)
(set-logic ALL)
(declare-datatype |top_s| ((|top_mk|
(|top_is| Bool)
(|top#0| (_ BitVec 8)) ; \counter
(|top#1| Bool) ; \clk
(|top#2| (_ BitVec 1)) ; \_witness_.anyinit_procdff_12
(|top#3| (_ BitVec 1)) ; $formal$autotune_div.sv:4$1_EN
)))
; yosys-smt2-witness {"offset": 0, "path": ["\\counter"], "smtname": 0, "smtoffset": 0, "type": "reg", "width": 8}
; yosys-smt2-register counter 8
; yosys-smt2-wire counter 8
(define-fun |top_n counter| ((state |top_s|)) (_ BitVec 8) (|top#0| state))
; yosys-smt2-input clk 1
; yosys-smt2-wire clk 1
; yosys-smt2-clock clk posedge
; yosys-smt2-witness {"offset": 0, "path": ["\\clk"], "smtname": "clk", "smtoffset": 0, "type": "posedge", "width": 1}
; yosys-smt2-witness {"offset": 0, "path": ["\\clk"], "smtname": "clk", "smtoffset": 0, "type": "input", "width": 1}
(define-fun |top_n clk| ((state |top_s|)) Bool (|top#1| state))
; yosys-smt2-anyinit top#2 1 autotune_div.sv:3.5-6.8
; yosys-smt2-witness {"offset": 0, "path": ["\\_witness_", "\\anyinit_procdff_12"], "smtname": 2, "smtoffset": 0, "type": "init", "width": 1}
; yosys-smt2-register _witness_.anyinit_procdff_12 1
; yosys-smt2-wire _witness_.anyinit_procdff_12 1
(define-fun |top_n _witness_.anyinit_procdff_12| ((state |top_s|)) Bool (= ((_ extract 0 0) (|top#2| state)) #b1))
; yosys-smt2-witness {"offset": 0, "path": ["$formal$autotune_div.sv:4$1_EN"], "smtname": 3, "smtoffset": 0, "type": "reg", "width": 1}
; yosys-smt2-register $formal$autotune_div.sv:4$1_EN 1
(define-fun |top_n $formal$autotune_div.sv:4$1_EN| ((state |top_s|)) Bool (= ((_ extract 0 0) (|top#3| state)) #b1))
(define-fun |top#4| ((state |top_s|)) (_ BitVec 1) (bvnot (ite (|top#1| state) #b1 #b0))) ; $auto$rtlil.cc:2400:Not$17
; yosys-smt2-assume 0 $auto$formalff.cc:758:execute$18
(define-fun |top_u 0| ((state |top_s|)) Bool (or (= ((_ extract 0 0) (|top#4| state)) #b1) (not true))) ; $auto$formalff.cc:758:execute$18
; yosys-smt2-assert 0 $assert$autotune_div.sv:4$7 autotune_div.sv:4.32-5.30
(define-fun |top_a 0| ((state |top_s|)) Bool (or (= ((_ extract 0 0) (|top#2| state)) #b1) (not (= ((_ extract 0 0) (|top#3| state)) #b1)))) ; $assert$autotune_div.sv:4$7
(define-fun |top#5| ((state |top_s|)) Bool (distinct (|top#0| state) #b00000100)) ; $0$formal$autotune_div.sv:4$1_CHECK[0:0]$3
(define-fun |top#6| ((state |top_s|)) (_ BitVec 8) (bvadd (|top#0| state) #b00000001)) ; $0\counter[7:0]
(define-fun |top_a| ((state |top_s|)) Bool
(|top_a 0| state)
)
(define-fun |top_u| ((state |top_s|)) Bool
(|top_u 0| state)
)
(define-fun |top_i| ((state |top_s|)) Bool (and
(= (|top#0| state) #b00000000) ; counter
(= (= ((_ extract 0 0) (|top#3| state)) #b1) false) ; $formal$autotune_div.sv:4$1_EN
))
(define-fun |top_h| ((state |top_s|)) Bool true)
(define-fun |top_t| ((state |top_s|) (next_state |top_s|)) Bool (and
(= #b1 (|top#3| next_state)) ; $procdff$13 $formal$autotune_div.sv:4$1_EN
(= (ite (|top#5| state) #b1 #b0) (|top#2| next_state)) ; $procdff$12 \_witness_.anyinit_procdff_12
(= (|top#6| state) (|top#0| next_state)) ; $procdff$11 \counter
)) ; end of module top
; yosys-smt2-topmod top
; end of yosys output
(declare-fun s0 () |top_s|)
(assert (|top_u| s0))
(assert (|top_h| s0))
(assert (|top_i| s0))
(assert (|top_is| s0))
(check-sat)